! RHF SP 6-311++G(d,p)

* xyz 0 2
   H       -2.98374        1.86445        0.00000
*