! B3LYP 6-311+G(d,p) Opt

%geom Scan
 B 0 5 = 0.5, 5, 46
 end
end

* xyz -1 1
   C       -2.84932        1.64381        0.00000
  Br       -0.91587        1.64378       -0.00000
   H       -3.21909        2.67807       -0.15592
   H       -3.21911        1.26170        0.97367
   H       -3.21911        0.99164       -0.81774
  Cl       -8.90284        1.62765        0.00000
*
