! B3LYP 6-311G Opt

* xyz -1 1
   O       -3.98275        1.91447       -0.14015
   H       -3.01013        1.85274        0.03536
   H       -4.32977        2.49146        0.58599
   H       -4.33094        1.01208        0.07214
*
