! B3LYP 6-311G(d) Opt

* xyz -1 1
   O        1.07326        1.22015       -0.02032
   H        2.06259        1.24535        0.01435
   H        0.78390        1.77683        0.74582
   H       -6.25636        1.33278        0.24662
*
