! PBE 6-311++G(d,p) Opt 

! Normalprint
%output
Print[P_Basis] 2
Print[P_MOs] 1
end

* xyz 0 1
   C       -5.07194        1.80824        0.00000
   C       -3.67295        1.81996        0.00000
   C       -2.96330        0.61426        0.00000
   H       -3.13965        2.76179        0.00000
   C       -5.76129        0.59082       -0.00000
   H       -5.62094        2.74101        0.00000
   C       -5.05164       -0.61489        0.00000
   C       -3.65265       -0.60317        0.00000
   H       -6.84359        0.58175       -0.00000
   H       -5.58494       -1.55672       -0.00000
   H       -3.10364       -1.53593        0.00000
   H       -1.88100        0.62332        0.00000
*
