# avogadro generated ORCA input file 
# Basic Mode
# 
! RHF def2-SVP Opt

%geom Constraints
 {B 0 1 15 C} # keep distance between atoms 0 and 1 fixed at 15 Ang
 end
end

* xyz 0 1
   H       -7.72197        1.87880       -0.00000
   H       -7.01710        1.81230       -0.00000
*