! RHF SP 3-21G

* xyz 0 2
   H       -2.98374        1.86445        0.00000
*