! B3LYP 6-311+G(d,p) Opt

* xyz -1 1
   C       -2.85312        1.64381        0.00000
  Br       -0.91968        1.64377       -0.00000
   H       -3.22289        2.67806       -0.15592
   H       -3.22291        1.26170        0.97367
   H       -3.22291        0.99163       -0.81774
  Cl       -8.88382        1.62770        0.00000
*
