! B3LYP 6-311G Opt

* xyz -1 1
   O       -0.01799        0.83344        0.00810
   H        0.97133        0.79286       -0.00571
   H       -0.30737       -0.06310       -0.29699
   H       -6.80600        0.67878       -0.00001
*
