! RHF def2-SVP Opt
! Normalprint
%output
Print[P_Basis] 2
Print[P_MOs] 1
end

* xyz 0 1
   H       -7.72197        1.87880       -0.00000
   H       -7.01710        1.81230       -0.00000
*