! RHF 6-311+G(d,p) Opt 

* xyz 0 1
   C       -6.43508        0.46988        0.00000
   C       -5.03818        0.54737       -0.00000
   C       -4.27263       -0.62364       -0.00000
   H       -4.54975        1.51323       -0.00000
   C       -7.06642       -0.77860        0.00000
   H       -7.02732        1.37581        0.00000
   C       -6.30087       -1.94961        0.00000
   H       -8.14710       -0.83854        0.00000
   C       -4.90398       -1.87213        0.00000
   H       -3.19195       -0.56370       -0.00000
   H       -6.78930       -2.91548        0.00000
   H       -4.31173       -2.77805        0.00000
*
